152 190 122 198 145 171 144 137 157 178 78 139 106 33 100 26 67 85 16 169 187 6 163 189 59 127 88 132 110 113 44 42 149 118 91 79 56 109 83 3 53 93 115 192 70 81 161 95 101 140 173 41 72 128 25 196 148 107 162 60 154 172 165 114 32 28 18 75 57 194 4 24 58 130 97 185 14 129 17 73 158 90 135 45 119 103 174 13 141 117 89 105 12 71 143 63 151 121 5 62 36 164 69 188 170 111 120 126 19 133 104 136 30 150 22 11 66 182 55 37 179 96 35 197 183 20 76 84 52 155 124 27 43 31 34 131 159 184 7 65 92 82 147 195 186 29 49 38 47 2 156 167 199 160 191 9 180 94 15 80 176 46 1 21 77 125 61 74 116 10 102 68 64 23 177 153 142 134 87 98 0 54 108 138 50 181 168 99 166 86 51 8 123 193 39 48 112 40 175 146 

